(set-logic QF_SLIA)
(set-option :produce-models true)
(declare-const X String)
; href\s*=\s*\"((\/)([i])(\/)+([\w\-\.,@?^=%&:/~\+#]*[\w\-\@?^=%&/~\+#]+)*)\"
(assert (str.in_re X (re.++ (str.to_re "href") (re.* (re.union (str.to_re " ") (str.to_re "\u{09}") (str.to_re "\u{0a}") (str.to_re "\u{0c}") (str.to_re "\u{0d}"))) (str.to_re "=") (re.* (re.union (str.to_re " ") (str.to_re "\u{09}") (str.to_re "\u{0a}") (str.to_re "\u{0c}") (str.to_re "\u{0d}"))) (str.to_re "\u{22}\u{22}\u{0a}/i") (re.+ (str.to_re "/")) (re.* (re.++ (re.* (re.union (str.to_re "-") (str.to_re ".") (str.to_re ",") (str.to_re "@") (str.to_re "?") (str.to_re "^") (str.to_re "=") (str.to_re "%") (str.to_re "&") (str.to_re ":") (str.to_re "/") (str.to_re "~") (str.to_re "+") (str.to_re "#") (re.range "0" "9") (re.range "A" "Z") (re.range "a" "z") (str.to_re "_"))) (re.+ (re.union (str.to_re "-") (str.to_re "@") (str.to_re "?") (str.to_re "^") (str.to_re "=") (str.to_re "%") (str.to_re "&") (str.to_re "/") (str.to_re "~") (str.to_re "+") (str.to_re "#") (re.range "0" "9") (re.range "A" "Z") (re.range "a" "z") (str.to_re "_"))))))))
; Host\x3AuploadServer3AdapupdEFErrorSubject\u{3a}
(assert (str.in_re X (str.to_re "Host:uploadServer3AdapupdEFErrorSubject:\u{0a}")))
; ^([a-zA-Z,#/ \.\(\)\-\+\*]*[0-9]){7}[0-9a-zA-Z,#/ \.\(\)\-\+\*]*$
(assert (not (str.in_re X (re.++ ((_ re.loop 7 7) (re.++ (re.* (re.union (re.range "a" "z") (re.range "A" "Z") (str.to_re ",") (str.to_re "#") (str.to_re "/") (str.to_re " ") (str.to_re ".") (str.to_re "(") (str.to_re ")") (str.to_re "-") (str.to_re "+") (str.to_re "*"))) (re.range "0" "9"))) (re.* (re.union (re.range "0" "9") (re.range "a" "z") (re.range "A" "Z") (str.to_re ",") (str.to_re "#") (str.to_re "/") (str.to_re " ") (str.to_re ".") (str.to_re "(") (str.to_re ")") (str.to_re "-") (str.to_re "+") (str.to_re "*"))) (str.to_re "\u{0a}")))))
(assert (> (str.len X) 10))
(check-sat)
